c This is a random SAT instance with 10 variables and 20 clauses
p cnf 10 20
-5 7 -2 -3 9 2 -6 -1 10 -4 0
10 -3 0
2 -5 -6 -8 8 1 -4 -1 10 0
-10 2 0
2 5 -5 -7 1 9 0
-7 1 -8 -1 10 5 7 -10 -9 0
-3 -4 -10 0
-7 9 10 0
2 -1 -3 9 -4 1 8 10 0
4 -7 3 -8 5 -2 -3 8 0
6 -9 -1 2 -3 0
6 -8 9 -2 4 -4 -6 0
4 -6 -4 2 10 0
6 2 0
6 -8 -1 -10 -4 1 0
-5 3 -3 10 7 -7 2 8 9 0
7 0
-2 -1 10 -10 1 5 3 6 0
5 0
6 0